
<<< setup

Version identifier: 22.1.1.0 | 2022-11-27 | 9160aff4d
Tried aggregator 1 time.
LP Presolve eliminated 1465 rows and 1395 columns.
Aggregator did 6 substitutions.
Reduced LP has 20 rows, 66 columns, and 96 nonzeros.
Presolve time = 0.00 sec. (2.87 ticks)
Initializing dual steep norms . . .

Iteration log . . .
Iteration:     1   Dual infeasibility =           269.630274
Iteration:    58   Dual objective     =           906.856878
main returns 0

<<< main


<<< done

